p edge 52 171
e 25 26
e 3 36
e 42 47
e 42 48
e 47 48
e 36 50
e 30 50
e 2 25
e 2 32
e 25 32
e 27 32
e 41 49
e 12 45
e 35 48
e 35 49
e 48 49
e 41 48
e 17 35
e 17 45
e 35 45
e 15 37
e 15 49
e 37 49
e 10 49
e 21 33
e 21 36
e 21 49
e 33 36
e 33 49
e 36 49
e 25 27
e 18 27
e 18 42
e 27 42
e 25 48
e 24 30
e 24 36
e 24 37
e 24 39
e 30 36
e 30 37
e 30 39
e 36 37
e 36 39
e 37 39
e 11 16
e 18 36
e 18 47
e 18 50
e 36 47
e 47 50
e 22 30
e 22 50
e 22 51
e 30 51
e 50 51
e 8 16
e 8 30
e 8 36
e 8 51
e 16 30
e 16 36
e 16 51
e 36 51
e 21 24
e 21 28
e 21 35
e 24 28
e 24 35
e 28 35
e 33 40
e 21 29
e 24 29
e 18 48
e 43 47
e 43 52
e 47 52
e 26 33
e 26 42
e 26 44
e 26 48
e 33 42
e 33 44
e 33 48
e 42 44
e 44 48
e 35 39
e 28 29
e 22 23
e 22 28
e 22 31
e 23 28
e 23 31
e 28 31
e 5 6
e 5 7
e 6 7
e 5 13
e 5 22
e 5 23
e 5 28
e 13 22
e 13 23
e 13 28
e 22 46
e 40 47
e 40 52
e 26 39
e 39 42
e 39 44
e 28 43
e 29 43
e 26 28
e 26 29
e 26 38
e 26 41
e 28 38
e 28 41
e 28 42
e 29 38
e 29 41
e 29 42
e 38 41
e 38 42
e 41 42
e 31 39
e 19 20
e 19 34
e 20 34
e 14 23
e 14 32
e 23 32
e 13 14
e 13 32
e 45 50
e 1 4
e 1 13
e 4 13
e 34 44
e 38 46
e 40 41
e 40 46
e 41 46
e 41 47
e 46 47
e 19 31
e 19 38
e 19 43
e 20 31
e 20 38
e 20 43
e 31 34
e 31 38
e 31 43
e 34 38
e 34 43
e 38 43
e 45 47
e 34 46
e 43 44
e 43 46
e 44 46
e 31 44
e 31 46
e 9 31
e 9 34
e 9 38
e 9 43
e 9 44
e 9 46
e 38 44
